378751.0
3800
0 1 2 3 5 6 7 8 9 10 11 12 13 15 16 17 18 20 21 22 23 24 27 30 34 35 36 37 38 39 42 44 45 47 48 50 51 53 54 55 58 59 60 61 63 64 65 67 68 69 70 71 74 75 76 77 78 80 82 84 86 87 88 91 93 94 95 96 97 98 99 101 102 104 107 108 109 110 111 112 113 114 115 117 118 120 121 122 123 124 125 127 129 130 131 132 133 134 135 136 137 138 139 141 142 143 144 145 147 148 149 150 151 152 153 154 157 158 159 160 161 163 167 168 169 170 171 172 173 174 176 177 180 182 183 184 185 186 187 189 190 191 193 194 196 198 199 